c ind 10 13 139 141 143 145 15 16 160 25 0
c ind 28 39 42 49 5 52 6 64 66 68 0
c ind 70 72 74 76 78 9 0
p cnf 160 525
-1 -2 11 0
-1 2 159 0
-100 -101 16 0
-100 -16 101 0
-101 -102 -103 0
-101 102 103 0
-102 -66 -16 0
-102 66 16 0
-103 64 16 0
-104 -105 16 0
-104 -16 105 0
-105 -106 -107 0
-105 106 107 0
-106 -68 -16 0
-106 68 16 0
-107 103 0
-107 66 0
-108 -109 16 0
-108 -16 109 0
-109 -110 -111 0
-109 110 111 0
-11 -12 14 0
-11 12 17 0
-110 -70 -16 0
-110 70 16 0
-111 107 0
-111 68 0
-112 -113 16 0
-112 -16 113 0
-113 -114 -115 0
-113 114 115 0
-114 -72 -16 0
-114 72 16 0
-115 111 0
-115 70 0
-116 -117 16 0
-116 -16 117 0
-117 -118 -119 0
-117 118 119 0
-118 -74 -16 0
-118 74 16 0
-119 115 0
-119 72 0
-12 -13 9 0
-12 -9 13 0
-120 -121 16 0
-120 -16 121 0
-121 -122 -123 0
-121 122 123 0
-122 -76 -16 0
-122 76 16 0
-123 119 0
-123 74 0
-124 -125 16 0
-124 -16 125 0
-125 -126 -127 0
-125 126 127 0
-126 -78 -16 0
-126 78 16 0
-127 123 0
-127 76 0
-128 -129 151 0
-128 129 152 0
-129 -22 130 0
-129 22 135 0
-130 -30 13 0
-130 30 131 0
-131 -32 132 0
-131 32 135 0
-132 -54 133 0
-132 54 135 0
-133 -85 134 0
-133 85 135 0
-134 -135 16 0
-134 135 146 0
-135 136 0
-135 144 0
-136 137 0
-136 142 0
-137 138 0
-137 140 0
-138 -139 16 0
-138 -16 139 0
-14 -15 16 0
-14 -16 15 0
-140 -141 16 0
-140 -16 141 0
-142 -143 16 0
-142 -16 143 0
-144 -145 16 0
-144 -16 145 0
-146 -147 16 0
-146 147 135 0
-147 144 0
-147 148 0
-148 142 0
-148 149 0
-149 140 0
-149 150 0
-150 -13 139 0
-150 -139 13 0
-151 -13 15 0
-151 -15 13 0
-152 -153 151 0
-152 153 159 0
-153 -22 154 0
-153 22 147 0
-154 -30 16 0
-154 30 155 0
-155 -32 156 0
-155 32 147 0
-156 -54 157 0
-156 54 147 0
-157 -85 158 0
-157 85 147 0
-158 -135 13 0
-158 135 16 0
-159 -15 160 0
-159 -160 15 0
-16 0
-17 -18 20 0
-17 18 159 0
-18 19 0
-18 3 0
-19 -13 5 0
-19 -5 13 0
-2 3 7 0
-20 -21 79 0
-20 21 159 0
-21 -22 29 0
-21 22 54 0
-22 23 26 0
-23 -24 0
-24 -25 6 0
-24 -6 25 0
-26 -27 0
-27 -10 28 0
-27 -28 10 0
-29 -30 13 0
-29 30 31 0
-3 -4 0
-30 -10 13 0
-30 -13 10 0
-31 -32 34 0
-31 32 54 0
-32 23 0
-32 33 0
-33 -13 6 0
-33 -6 13 0
-34 -35 50 0
-34 35 54 0
-35 -36 43 0
-35 36 48 0
-36 37 40 0
-37 -38 0
-38 -25 39 0
-38 -39 25 0
-4 -5 6 0
-4 -6 5 0
-40 -41 0
-41 -28 42 0
-41 -42 28 0
-43 -44 16 0
-43 44 45 0
-44 -13 28 0
-44 -28 13 0
-45 -46 16 0
-45 46 48 0
-46 37 0
-46 47 0
-47 -13 25 0
-47 -25 13 0
-48 -13 49 0
-48 -49 13 0
-50 -51 13 0
-50 51 53 0
-51 -16 52 0
-51 -52 16 0
-53 -54 55 0
-53 54 54 0
-54 -13 52 0
-54 -52 13 0
-55 -56 13 0
-55 56 16 0
-56 57 0
-56 77 0
-57 58 0
-57 75 0
-58 59 0
-58 73 0
-59 60 0
-59 71 0
-60 61 0
-60 69 0
-61 62 0
-61 67 0
-62 63 0
-62 65 0
-63 -16 64 0
-63 -64 16 0
-65 -16 66 0
-65 -66 16 0
-67 -16 68 0
-67 -68 16 0
-69 -16 70 0
-69 -70 16 0
-7 -8 0
-71 -13 72 0
-71 -72 13 0
-73 -16 74 0
-73 -74 16 0
-75 -16 76 0
-75 -76 16 0
-77 -16 78 0
-77 -78 16 0
-79 -80 128 0
-79 80 159 0
-8 -10 9 0
-8 -9 10 0
-80 -22 81 0
-80 22 85 0
-81 -30 16 0
-81 30 82 0
-82 -32 83 0
-82 32 85 0
-83 -54 84 0
-83 54 85 0
-84 -85 85 0
-84 85 90 0
-85 77 0
-85 86 0
-86 75 0
-86 87 0
-87 73 0
-87 88 0
-88 60 0
-88 89 0
-89 -16 72 0
-89 -72 16 0
-90 124 0
-90 91 0
-91 120 0
-91 92 0
-92 116 0
-92 93 0
-93 112 0
-93 94 0
-94 108 0
-94 95 0
-95 104 0
-95 96 0
-96 100 0
-96 97 0
-97 -16 98 0
-97 -98 16 0
-98 -99 -16 0
-98 99 16 0
-99 -64 -13 0
-99 64 13 0
1 -11 -159 0
1 -2 -11 0
1 0
1 2 -159 0
100 -101 -16 0
100 101 16 0
101 -102 103 0
101 -103 102 0
102 -16 66 0
102 -66 16 0
103 -16 0
103 -64 0
104 -105 -16 0
104 105 16 0
105 -106 107 0
105 -107 106 0
106 -16 68 0
106 -68 16 0
107 -66 -103 0
108 -109 -16 0
108 109 16 0
109 -110 111 0
109 -111 110 0
11 -12 -14 0
11 -14 -17 0
11 12 -17 0
110 -16 70 0
110 -70 16 0
111 -68 -107 0
112 -113 -16 0
112 113 16 0
113 -114 115 0
113 -115 114 0
114 -16 72 0
114 -72 16 0
115 -70 -111 0
116 -117 -16 0
116 117 16 0
117 -118 119 0
117 -119 118 0
118 -16 74 0
118 -74 16 0
119 -72 -115 0
12 -9 -13 0
12 9 13 0
120 -121 -16 0
120 121 16 0
121 -122 123 0
121 -123 122 0
122 -16 76 0
122 -76 16 0
123 -74 -119 0
124 -125 -16 0
124 125 16 0
125 -126 127 0
125 -127 126 0
126 -16 78 0
126 -78 16 0
127 -76 -123 0
128 -129 -151 0
128 -151 -152 0
128 129 -152 0
129 -130 -135 0
129 -22 -130 0
129 22 -135 0
13 0
130 -13 -131 0
130 -30 -13 0
130 30 -131 0
131 -132 -135 0
131 -32 -132 0
131 32 -135 0
132 -133 -135 0
132 -54 -133 0
132 54 -135 0
133 -134 -135 0
133 -85 -134 0
133 85 -135 0
134 -135 -16 0
134 -16 -146 0
134 135 -146 0
135 -136 -144 0
136 -137 -142 0
137 -138 -140 0
138 -139 -16 0
138 139 16 0
14 -15 -16 0
14 15 16 0
140 -141 -16 0
140 141 16 0
142 -143 -16 0
142 143 16 0
144 -145 -16 0
144 145 16 0
146 -147 -16 0
146 -16 -135 0
146 147 -135 0
147 -148 -144 0
148 -149 -142 0
149 -150 -140 0
150 -139 -13 0
150 139 13 0
151 -15 -13 0
151 15 13 0
152 -151 -159 0
152 -153 -151 0
152 153 -159 0
153 -154 -147 0
153 -22 -154 0
153 22 -147 0
154 -16 -155 0
154 -30 -16 0
154 30 -155 0
155 -156 -147 0
155 -32 -156 0
155 32 -147 0
156 -157 -147 0
156 -54 -157 0
156 54 -147 0
157 -158 -147 0
157 -85 -158 0
157 85 -147 0
158 -13 -16 0
158 -135 -13 0
158 135 -16 0
159 -15 -160 0
159 15 160 0
17 -18 -20 0
17 -20 -159 0
17 18 -159 0
18 -3 -19 0
19 -5 -13 0
19 5 13 0
2 -3 0
2 -7 0
20 -21 -79 0
20 -79 -159 0
20 21 -159 0
21 -22 -29 0
21 -29 -54 0
21 22 -54 0
22 -23 0
22 -26 0
23 24 0
24 -6 -25 0
24 6 25 0
26 27 0
27 -10 -28 0
27 10 28 0
29 -13 -31 0
29 -30 -13 0
29 30 -31 0
3 4 0
30 -10 -13 0
30 10 13 0
31 -32 -34 0
31 -34 -54 0
31 32 -54 0
32 -23 -33 0
33 -6 -13 0
33 6 13 0
34 -35 -50 0
34 -50 -54 0
34 35 -54 0
35 -36 -43 0
35 -43 -48 0
35 36 -48 0
36 -37 0
36 -40 0
37 38 0
38 -25 -39 0
38 25 39 0
4 -5 -6 0
4 5 6 0
40 41 0
41 -28 -42 0
41 28 42 0
43 -16 -45 0
43 -44 -16 0
43 44 -45 0
44 -28 -13 0
44 28 13 0
45 -16 -48 0
45 -46 -16 0
45 46 -48 0
46 -37 -47 0
47 -25 -13 0
47 25 13 0
48 -49 -13 0
48 49 13 0
50 -13 -53 0
50 -51 -13 0
50 51 -53 0
51 -52 -16 0
51 52 16 0
53 -54 -55 0
53 -55 -54 0
53 54 -54 0
54 -52 -13 0
54 52 13 0
55 -13 -16 0
55 -56 -13 0
55 56 -16 0
56 -57 -77 0
57 -58 -75 0
58 -59 -73 0
59 -60 -71 0
60 -61 -69 0
61 -62 -67 0
62 -63 -65 0
63 -64 -16 0
63 64 16 0
65 -66 -16 0
65 66 16 0
67 -68 -16 0
67 68 16 0
69 -70 -16 0
69 70 16 0
7 8 0
71 -72 -13 0
71 72 13 0
73 -74 -16 0
73 74 16 0
75 -76 -16 0
75 76 16 0
77 -78 -16 0
77 78 16 0
79 -128 -159 0
79 -80 -128 0
79 80 -159 0
8 -9 -10 0
8 9 10 0
80 -22 -81 0
80 -81 -85 0
80 22 -85 0
81 -16 -82 0
81 -30 -16 0
81 30 -82 0
82 -32 -83 0
82 -83 -85 0
82 32 -85 0
83 -54 -84 0
83 -84 -85 0
83 54 -85 0
84 -85 -85 0
84 -85 -90 0
84 85 -90 0
85 -86 -77 0
86 -87 -75 0
87 -88 -73 0
88 -60 -89 0
89 -72 -16 0
89 72 16 0
90 -91 -124 0
91 -92 -120 0
92 -93 -116 0
93 -94 -112 0
94 -95 -108 0
95 -96 -104 0
96 -97 -100 0
97 -98 -16 0
97 98 16 0
98 -16 99 0
98 -99 16 0
99 -13 64 0
99 -64 13 0
